p cnf 200 990
c p weight 10 1 0
c p weight -10 1 0
c p weight 11 0 0
c p weight -11 1 0
c p weight 14 0 0
c p weight -14 1 0
c p weight 15 1 0
c p weight -15 1 0
c p weight 18 1 0
c p weight -18 1 0
c p weight 19 0 0
c p weight -19 1 0
c p weight 22 0 0
c p weight -22 1 0
c p weight 23 1 0
c p weight -23 1 0
c p weight 26 -1 0
c p weight -26 1 0
c p weight 27 0 0
c p weight -27 1 0
c p weight 30 1 0
c p weight -30 1 0
c p weight 31 0 0
c p weight -31 1 0
c p weight 34 0 0
c p weight -34 1 0
c p weight 35 1 0
c p weight -35 1 0
c p weight 38 0.09133220464431802965155071660774410702288150787353515625 0
c p weight -38 1 0
c p weight 39 -0.995820480003704489035953884012997150421142578125 0
c p weight -39 1 0
c p weight 42 0 0
c p weight -42 1 0
c p weight 43 1 0
c p weight -43 1 0
c p weight 46 -1 0
c p weight -46 1 0
c p weight 47 0 0
c p weight -47 1 0
c p weight 50 1 0
c p weight -50 1 0
c p weight 51 0 0
c p weight -51 1 0
c p weight 54 0 0
c p weight -54 1 0
c p weight 55 1 0
c p weight -55 1 0
c p weight 58 -0.99731671521640141708786586605128832161426544189453125 0
c p weight -58 1 0
c p weight 59 0.07320771509866451365322603805907419882714748382568359375 0
c p weight -59 1 0
c p weight 62 0 0
c p weight -62 1 0
c p weight 63 1 0
c p weight -63 1 0
c p weight 66 -1 0
c p weight -66 1 0
c p weight 67 0 0
c p weight -67 1 0
c p weight 76 1 0
c p weight -76 1 0
c p weight 77 0 0
c p weight -77 1 0
c p weight 80 0 0
c p weight -80 1 0
c p weight 81 1 0
c p weight -81 1 0
c p weight 84 0.99999910330413344095035199643461965024471282958984375 0
c p weight -84 1 0
c p weight 85 -0.00133917546615468468877707675090960037778131663799285888671875 0
c p weight -85 1 0
c p weight 88 0 0
c p weight -88 1 0
c p weight 89 1 0
c p weight -89 1 0
c p weight 92 -1 0
c p weight -92 1 0
c p weight 93 0 0
c p weight -93 1 0
c p weight 96 1 0
c p weight -96 1 0
c p weight 97 0 0
c p weight -97 1 0
c p weight 100 0 0
c p weight -100 1 0
c p weight 101 1 0
c p weight -101 1 0
c p weight 104 0.264293834779085246022845012703328393399715423583984375 0
c p weight -104 1 0
c p weight 105 0.9644422060951944875029084869311191141605377197265625 0
c p weight -105 1 0
c p weight 108 0 0
c p weight -108 1 0
c p weight 109 1 0
c p weight -109 1 0
c p weight 112 -1 0
c p weight -112 1 0
c p weight 113 0 0
c p weight -113 1 0
c p weight 116 1 0
c p weight -116 1 0
c p weight 117 0 0
c p weight -117 1 0
c p weight 120 0 0
c p weight -120 1 0
c p weight 121 1 0
c p weight -121 1 0
c p weight 124 -0.1326139505299075704858324797896784730255603790283203125 0
c p weight -124 1 0
c p weight 125 0.99116776588267396785880691822967492043972015380859375 0
c p weight -125 1 0
c p weight 128 0 0
c p weight -128 1 0
c p weight 129 1 0
c p weight -129 1 0
c p weight 132 -1 0
c p weight -132 1 0
c p weight 133 0 0
c p weight -133 1 0
c p weight 142 1 0
c p weight -142 1 0
c p weight 143 0 0
c p weight -143 1 0
c p weight 146 0 0
c p weight -146 1 0
c p weight 147 1 0
c p weight -147 1 0
c p weight 150 1 0
c p weight -150 1 0
c p weight 151 0 0
c p weight -151 1 0
c p weight 154 0 0
c p weight -154 1 0
c p weight 155 1 0
c p weight -155 1 0
c p weight 158 -1 0
c p weight -158 1 0
c p weight 159 0 0
c p weight -159 1 0
c p weight 162 1 0
c p weight -162 1 0
c p weight 163 0 0
c p weight -163 1 0
c p weight 166 0 0
c p weight -166 1 0
c p weight 167 1 0
c p weight -167 1 0
c p weight 170 0.7679573758570643615684048199909739196300506591796875 0
c p weight -170 1 0
c p weight 171 0.64050095149557095819403684799908660352230072021484375 0
c p weight -171 1 0
c p weight 174 0 0
c p weight -174 1 0
c p weight 175 1 0
c p weight -175 1 0
c p weight 178 -1 0
c p weight -178 1 0
c p weight 179 0 0
c p weight -179 1 0
c p weight 182 1 0
c p weight -182 1 0
c p weight 183 0 0
c p weight -183 1 0
c p weight 186 0 0
c p weight -186 1 0
c p weight 187 1 0
c p weight -187 1 0
c p weight 190 -0.99989946423220243953977615092298947274684906005859375 0
c p weight -190 1 0
c p weight 191 0.01417961311723774271709164196408892166800796985626220703125 0
c p weight -191 1 0
c p weight 194 0 0
c p weight -194 1 0
c p weight 195 1 0
c p weight -195 1 0
c p weight 198 -1 0
c p weight -198 1 0
c p weight 199 0 0
c p weight -199 1 0
c p weight 196 -1 0
c p weight -196 1 0
c p weight 200 0.5 0
200 0
-7 0
-5 0
-3 0
-1 0
8 -7 1 0
8 -7 2 0
-8 7 1 0
-8 7 2 0
8 -9 -7 0
-8 -9 7 0
8 9 7 -1 -2 0
-8 9 -7 -1 -2 0
9 1 -2 0
-9 1 2 0
-10 1 0
9 -10 -2 0
-9 -10 2 0
9 10 -1 2 0
-9 10 -1 -2 0
-11 1 0
9 -11 2 0
-9 -11 -2 0
9 11 -1 -2 0
-9 11 -1 2 0
12 13 -8 0
12 -8 9 0
-12 13 8 0
-12 8 9 0
12 -8 -1 0
-12 8 -1 0
12 -13 8 1 -9 0
-12 -13 -8 1 -9 0
13 -1 9 0
-13 1 9 0
-14 9 0
13 -14 -1 0
-13 -14 1 0
13 14 1 -9 0
-13 14 -1 -9 0
-15 9 0
13 -15 1 0
-13 -15 -1 0
13 15 -1 -9 0
-13 15 1 -9 0
16 -12 13 0
16 -12 9 0
-16 12 13 0
-16 12 9 0
16 -17 -12 0
-16 -17 12 0
16 17 12 -13 -9 0
-16 17 -12 -13 -9 0
17 13 -9 0
-17 13 9 0
-18 13 0
17 -18 -9 0
-17 -18 9 0
17 18 -13 9 0
-17 18 -13 -9 0
-19 13 0
17 -19 9 0
-17 -19 -9 0
17 19 -13 -9 0
-17 19 -13 9 0
20 21 -16 0
20 -16 17 0
-20 21 16 0
-20 16 17 0
20 -16 -13 0
-20 16 -13 0
20 -21 16 13 -17 0
-20 -21 -16 13 -17 0
21 -13 17 0
-21 13 17 0
-22 17 0
21 -22 -13 0
-21 -22 13 0
21 22 13 -17 0
-21 22 -13 -17 0
-23 17 0
21 -23 13 0
-21 -23 -13 0
21 23 -13 -17 0
-21 23 13 -17 0
24 -20 21 0
24 -20 17 0
-24 20 21 0
-24 20 17 0
24 -25 -20 0
-24 -25 20 0
24 25 20 -21 -17 0
-24 25 -20 -21 -17 0
25 21 -17 0
-25 21 17 0
-26 21 0
25 -26 -17 0
-25 -26 17 0
25 26 -21 17 0
-25 26 -21 -17 0
-27 21 0
25 -27 17 0
-25 -27 -17 0
25 27 -21 -17 0
-25 27 -21 17 0
28 -24 3 0
28 -24 4 0
-28 24 3 0
-28 24 4 0
28 -29 -24 0
-28 -29 24 0
28 29 24 -3 -4 0
-28 29 -24 -3 -4 0
29 3 -4 0
-29 3 4 0
-30 3 0
29 -30 -4 0
-29 -30 4 0
29 30 -3 4 0
-29 30 -3 -4 0
-31 3 0
29 -31 4 0
-29 -31 -4 0
29 31 -3 -4 0
-29 31 -3 4 0
32 33 -28 0
32 -28 29 0
-32 33 28 0
-32 28 29 0
32 -28 -3 0
-32 28 -3 0
32 -33 28 3 -29 0
-32 -33 -28 3 -29 0
33 -3 29 0
-33 3 29 0
-34 29 0
33 -34 -3 0
-33 -34 3 0
33 34 3 -29 0
-33 34 -3 -29 0
-35 29 0
33 -35 3 0
-33 -35 -3 0
33 35 -3 -29 0
-33 35 3 -29 0
36 -32 33 0
36 -32 29 0
-36 32 33 0
-36 32 29 0
36 -37 -32 0
-36 -37 32 0
36 37 32 -33 -29 0
-36 37 -32 -33 -29 0
37 33 -29 0
-37 33 29 0
-38 33 0
37 -38 -29 0
-37 -38 29 0
37 38 -33 29 0
-37 38 -33 -29 0
-39 33 0
37 -39 29 0
-37 -39 -29 0
37 39 -33 -29 0
-37 39 -33 29 0
40 41 -36 0
40 -36 37 0
-40 41 36 0
-40 36 37 0
40 -36 -33 0
-40 36 -33 0
40 -41 36 33 -37 0
-40 -41 -36 33 -37 0
41 -33 37 0
-41 33 37 0
-42 37 0
41 -42 -33 0
-41 -42 33 0
41 42 33 -37 0
-41 42 -33 -37 0
-43 37 0
41 -43 33 0
-41 -43 -33 0
41 43 -33 -37 0
-41 43 33 -37 0
44 -40 41 0
44 -40 37 0
-44 40 41 0
-44 40 37 0
44 -45 -40 0
-44 -45 40 0
44 45 40 -41 -37 0
-44 45 -40 -41 -37 0
45 41 -37 0
-45 41 37 0
-46 41 0
45 -46 -37 0
-45 -46 37 0
45 46 -41 37 0
-45 46 -41 -37 0
-47 41 0
45 -47 37 0
-45 -47 -37 0
45 47 -41 -37 0
-45 47 -41 37 0
48 -44 5 0
48 -44 6 0
-48 44 5 0
-48 44 6 0
48 -49 -44 0
-48 -49 44 0
48 49 44 -5 -6 0
-48 49 -44 -5 -6 0
49 5 -6 0
-49 5 6 0
-50 5 0
49 -50 -6 0
-49 -50 6 0
49 50 -5 6 0
-49 50 -5 -6 0
-51 5 0
49 -51 6 0
-49 -51 -6 0
49 51 -5 -6 0
-49 51 -5 6 0
52 53 -48 0
52 -48 49 0
-52 53 48 0
-52 48 49 0
52 -48 -5 0
-52 48 -5 0
52 -53 48 5 -49 0
-52 -53 -48 5 -49 0
53 -5 49 0
-53 5 49 0
-54 49 0
53 -54 -5 0
-53 -54 5 0
53 54 5 -49 0
-53 54 -5 -49 0
-55 49 0
53 -55 5 0
-53 -55 -5 0
53 55 -5 -49 0
-53 55 5 -49 0
56 -52 53 0
56 -52 49 0
-56 52 53 0
-56 52 49 0
56 -57 -52 0
-56 -57 52 0
56 57 52 -53 -49 0
-56 57 -52 -53 -49 0
57 53 -49 0
-57 53 49 0
-58 53 0
57 -58 -49 0
-57 -58 49 0
57 58 -53 49 0
-57 58 -53 -49 0
-59 53 0
57 -59 49 0
-57 -59 -49 0
57 59 -53 -49 0
-57 59 -53 49 0
60 61 -56 0
60 -56 57 0
-60 61 56 0
-60 56 57 0
60 -56 -53 0
-60 56 -53 0
60 -61 56 53 -57 0
-60 -61 -56 53 -57 0
61 -53 57 0
-61 53 57 0
-62 57 0
61 -62 -53 0
-61 -62 53 0
61 62 53 -57 0
-61 62 -53 -57 0
-63 57 0
61 -63 53 0
-61 -63 -53 0
61 63 -53 -57 0
-61 63 53 -57 0
64 -60 61 0
64 -60 57 0
-64 60 61 0
-64 60 57 0
64 -65 -60 0
-64 -65 60 0
64 65 60 -61 -57 0
-64 65 -60 -61 -57 0
65 61 -57 0
-65 61 57 0
-66 61 0
65 -66 -57 0
-65 -66 57 0
65 66 -61 57 0
-65 66 -61 -57 0
-67 61 0
65 -67 57 0
-65 -67 -57 0
65 67 -61 -57 0
-65 67 -61 57 0
68 -64 41 0
68 -64 65 0
-68 64 41 0
-68 64 65 0
68 -64 61 -45 0
68 -64 -61 45 0
-68 64 61 -45 0
-68 64 -61 45 0
68 64 -41 61 45 -65 0
68 64 -41 -61 -45 -65 0
-68 -64 -41 61 45 -65 0
-68 -64 -41 -61 -45 -65 0
70 41 -61 0
70 -41 61 0
-70 41 61 0
-70 -41 -61 0
69 45 -65 0
69 -45 65 0
-69 45 65 0
-69 -45 -65 0
71 -68 21 0
71 -68 69 0
-71 68 21 0
-71 68 69 0
71 -68 41 -25 0
71 -68 -41 25 0
-71 68 41 -25 0
-71 68 -41 25 0
71 68 -21 41 25 -69 0
71 68 -21 -41 -25 -69 0
-71 -68 -21 41 25 -69 0
-71 -68 -21 -41 -25 -69 0
73 21 -41 0
73 -21 41 0
-73 21 41 0
-73 -21 -41 0
72 25 -69 0
72 -25 69 0
-72 25 69 0
-72 -25 -69 0
74 -71 21 0
74 -71 72 0
-74 71 21 0
-74 71 72 0
74 -75 -71 0
-74 -75 71 0
74 75 71 -21 -72 0
-74 75 -71 -21 -72 0
75 21 -72 0
-75 21 72 0
-76 21 0
75 -76 -72 0
-75 -76 72 0
75 76 -21 72 0
-75 76 -21 -72 0
-77 21 0
75 -77 72 0
-75 -77 -72 0
75 77 -21 -72 0
-75 77 -21 72 0
78 79 -74 0
78 -74 75 0
-78 79 74 0
-78 74 75 0
78 -74 -21 0
-78 74 -21 0
78 -79 74 21 -75 0
-78 -79 -74 21 -75 0
79 -21 75 0
-79 21 75 0
-80 75 0
79 -80 -21 0
-79 -80 21 0
79 80 21 -75 0
-79 80 -21 -75 0
-81 75 0
79 -81 21 0
-79 -81 -21 0
79 81 -21 -75 0
-79 81 21 -75 0
82 -78 79 0
82 -78 75 0
-82 78 79 0
-82 78 75 0
82 -83 -78 0
-82 -83 78 0
82 83 78 -79 -75 0
-82 83 -78 -79 -75 0
83 79 -75 0
-83 79 75 0
-84 79 0
83 -84 -75 0
-83 -84 75 0
83 84 -79 75 0
-83 84 -79 -75 0
-85 79 0
83 -85 75 0
-83 -85 -75 0
83 85 -79 -75 0
-83 85 -79 75 0
86 87 -82 0
86 -82 83 0
-86 87 82 0
-86 82 83 0
86 -82 -79 0
-86 82 -79 0
86 -87 82 79 -83 0
-86 -87 -82 79 -83 0
87 -79 83 0
-87 79 83 0
-88 83 0
87 -88 -79 0
-87 -88 79 0
87 88 79 -83 0
-87 88 -79 -83 0
-89 83 0
87 -89 79 0
-87 -89 -79 0
87 89 -79 -83 0
-87 89 79 -83 0
90 -86 87 0
90 -86 83 0
-90 86 87 0
-90 86 83 0
90 -91 -86 0
-90 -91 86 0
90 91 86 -87 -83 0
-90 91 -86 -87 -83 0
91 87 -83 0
-91 87 83 0
-92 87 0
91 -92 -83 0
-91 -92 83 0
91 92 -87 83 0
-91 92 -87 -83 0
-93 87 0
91 -93 83 0
-91 -93 -83 0
91 93 -87 -83 0
-91 93 -87 83 0
94 -90 73 0
94 -90 69 0
-94 90 73 0
-94 90 69 0
94 -95 -90 0
-94 -95 90 0
94 95 90 -73 -69 0
-94 95 -90 -73 -69 0
95 73 -69 0
-95 73 69 0
-96 73 0
95 -96 -69 0
-95 -96 69 0
95 96 -73 69 0
-95 96 -73 -69 0
-97 73 0
95 -97 69 0
-95 -97 -69 0
95 97 -73 -69 0
-95 97 -73 69 0
98 99 -94 0
98 -94 95 0
-98 99 94 0
-98 94 95 0
98 -94 -73 0
-98 94 -73 0
98 -99 94 73 -95 0
-98 -99 -94 73 -95 0
99 -73 95 0
-99 73 95 0
-100 95 0
99 -100 -73 0
-99 -100 73 0
99 100 73 -95 0
-99 100 -73 -95 0
-101 95 0
99 -101 73 0
-99 -101 -73 0
99 101 -73 -95 0
-99 101 73 -95 0
102 -98 99 0
102 -98 95 0
-102 98 99 0
-102 98 95 0
102 -103 -98 0
-102 -103 98 0
102 103 98 -99 -95 0
-102 103 -98 -99 -95 0
103 99 -95 0
-103 99 95 0
-104 99 0
103 -104 -95 0
-103 -104 95 0
103 104 -99 95 0
-103 104 -99 -95 0
-105 99 0
103 -105 95 0
-103 -105 -95 0
103 105 -99 -95 0
-103 105 -99 95 0
106 107 -102 0
106 -102 103 0
-106 107 102 0
-106 102 103 0
106 -102 -99 0
-106 102 -99 0
106 -107 102 99 -103 0
-106 -107 -102 99 -103 0
107 -99 103 0
-107 99 103 0
-108 103 0
107 -108 -99 0
-107 -108 99 0
107 108 99 -103 0
-107 108 -99 -103 0
-109 103 0
107 -109 99 0
-107 -109 -99 0
107 109 -99 -103 0
-107 109 99 -103 0
110 -106 107 0
110 -106 103 0
-110 106 107 0
-110 106 103 0
110 -111 -106 0
-110 -111 106 0
110 111 106 -107 -103 0
-110 111 -106 -107 -103 0
111 107 -103 0
-111 107 103 0
-112 107 0
111 -112 -103 0
-111 -112 103 0
111 112 -107 103 0
-111 112 -107 -103 0
-113 107 0
111 -113 103 0
-111 -113 -103 0
111 113 -107 -103 0
-111 113 -107 103 0
114 -110 70 0
114 -110 65 0
-114 110 70 0
-114 110 65 0
114 -115 -110 0
-114 -115 110 0
114 115 110 -70 -65 0
-114 115 -110 -70 -65 0
115 70 -65 0
-115 70 65 0
-116 70 0
115 -116 -65 0
-115 -116 65 0
115 116 -70 65 0
-115 116 -70 -65 0
-117 70 0
115 -117 65 0
-115 -117 -65 0
115 117 -70 -65 0
-115 117 -70 65 0
118 119 -114 0
118 -114 115 0
-118 119 114 0
-118 114 115 0
118 -114 -70 0
-118 114 -70 0
118 -119 114 70 -115 0
-118 -119 -114 70 -115 0
119 -70 115 0
-119 70 115 0
-120 115 0
119 -120 -70 0
-119 -120 70 0
119 120 70 -115 0
-119 120 -70 -115 0
-121 115 0
119 -121 70 0
-119 -121 -70 0
119 121 -70 -115 0
-119 121 70 -115 0
122 -118 119 0
122 -118 115 0
-122 118 119 0
-122 118 115 0
122 -123 -118 0
-122 -123 118 0
122 123 118 -119 -115 0
-122 123 -118 -119 -115 0
123 119 -115 0
-123 119 115 0
-124 119 0
123 -124 -115 0
-123 -124 115 0
123 124 -119 115 0
-123 124 -119 -115 0
-125 119 0
123 -125 115 0
-123 -125 -115 0
123 125 -119 -115 0
-123 125 -119 115 0
126 127 -122 0
126 -122 123 0
-126 127 122 0
-126 122 123 0
126 -122 -119 0
-126 122 -119 0
126 -127 122 119 -123 0
-126 -127 -122 119 -123 0
127 -119 123 0
-127 119 123 0
-128 123 0
127 -128 -119 0
-127 -128 119 0
127 128 119 -123 0
-127 128 -119 -123 0
-129 123 0
127 -129 119 0
-127 -129 -119 0
127 129 -119 -123 0
-127 129 119 -123 0
130 -126 127 0
130 -126 123 0
-130 126 127 0
-130 126 123 0
130 -131 -126 0
-130 -131 126 0
130 131 126 -127 -123 0
-130 131 -126 -127 -123 0
131 127 -123 0
-131 127 123 0
-132 127 0
131 -132 -123 0
-131 -132 123 0
131 132 -127 123 0
-131 132 -127 -123 0
-133 127 0
131 -133 123 0
-131 -133 -123 0
131 133 -127 -123 0
-131 133 -127 123 0
134 -130 107 0
134 -130 131 0
-134 130 107 0
-134 130 131 0
134 -130 127 -111 0
134 -130 -127 111 0
-134 130 127 -111 0
-134 130 -127 111 0
134 130 -107 127 111 -131 0
134 130 -107 -127 -111 -131 0
-134 -130 -107 127 111 -131 0
-134 -130 -107 -127 -111 -131 0
136 107 -127 0
136 -107 127 0
-136 107 127 0
-136 -107 -127 0
135 111 -131 0
135 -111 131 0
-135 111 131 0
-135 -111 -131 0
137 -134 87 0
137 -134 135 0
-137 134 87 0
-137 134 135 0
137 -134 107 -91 0
137 -134 -107 91 0
-137 134 107 -91 0
-137 134 -107 91 0
137 134 -87 107 91 -135 0
137 134 -87 -107 -91 -135 0
-137 -134 -87 107 91 -135 0
-137 -134 -87 -107 -91 -135 0
139 87 -107 0
139 -87 107 0
-139 87 107 0
-139 -87 -107 0
138 91 -135 0
138 -91 135 0
-138 91 135 0
-138 -91 -135 0
140 -137 87 0
140 -137 138 0
-140 137 87 0
-140 137 138 0
140 -141 -137 0
-140 -141 137 0
140 141 137 -87 -138 0
-140 141 -137 -87 -138 0
141 87 -138 0
-141 87 138 0
-142 87 0
141 -142 -138 0
-141 -142 138 0
141 142 -87 138 0
-141 142 -87 -138 0
-143 87 0
141 -143 138 0
-141 -143 -138 0
141 143 -87 -138 0
-141 143 -87 138 0
144 145 -140 0
144 -140 141 0
-144 145 140 0
-144 140 141 0
144 -140 -87 0
-144 140 -87 0
144 -145 140 87 -141 0
-144 -145 -140 87 -141 0
145 -87 141 0
-145 87 141 0
-146 141 0
145 -146 -87 0
-145 -146 87 0
145 146 87 -141 0
-145 146 -87 -141 0
-147 141 0
145 -147 87 0
-145 -147 -87 0
145 147 -87 -141 0
-145 147 87 -141 0
148 -144 145 0
148 -144 141 0
-148 144 145 0
-148 144 141 0
148 -149 -144 0
-148 -149 144 0
148 149 144 -145 -141 0
-148 149 -144 -145 -141 0
149 145 -141 0
-149 145 141 0
-150 145 0
149 -150 -141 0
-149 -150 141 0
149 150 -145 141 0
-149 150 -145 -141 0
-151 145 0
149 -151 141 0
-149 -151 -141 0
149 151 -145 -141 0
-149 151 -145 141 0
152 153 -148 0
152 -148 149 0
-152 153 148 0
-152 148 149 0
152 -148 -145 0
-152 148 -145 0
152 -153 148 145 -149 0
-152 -153 -148 145 -149 0
153 -145 149 0
-153 145 149 0
-154 149 0
153 -154 -145 0
-153 -154 145 0
153 154 145 -149 0
-153 154 -145 -149 0
-155 149 0
153 -155 145 0
-153 -155 -145 0
153 155 -145 -149 0
-153 155 145 -149 0
156 -152 153 0
156 -152 149 0
-156 152 153 0
-156 152 149 0
156 -157 -152 0
-156 -157 152 0
156 157 152 -153 -149 0
-156 157 -152 -153 -149 0
157 153 -149 0
-157 153 149 0
-158 153 0
157 -158 -149 0
-157 -158 149 0
157 158 -153 149 0
-157 158 -153 -149 0
-159 153 0
157 -159 149 0
-157 -159 -149 0
157 159 -153 -149 0
-157 159 -153 149 0
160 -156 139 0
160 -156 135 0
-160 156 139 0
-160 156 135 0
160 -161 -156 0
-160 -161 156 0
160 161 156 -139 -135 0
-160 161 -156 -139 -135 0
161 139 -135 0
-161 139 135 0
-162 139 0
161 -162 -135 0
-161 -162 135 0
161 162 -139 135 0
-161 162 -139 -135 0
-163 139 0
161 -163 135 0
-161 -163 -135 0
161 163 -139 -135 0
-161 163 -139 135 0
164 165 -160 0
164 -160 161 0
-164 165 160 0
-164 160 161 0
164 -160 -139 0
-164 160 -139 0
164 -165 160 139 -161 0
-164 -165 -160 139 -161 0
165 -139 161 0
-165 139 161 0
-166 161 0
165 -166 -139 0
-165 -166 139 0
165 166 139 -161 0
-165 166 -139 -161 0
-167 161 0
165 -167 139 0
-165 -167 -139 0
165 167 -139 -161 0
-165 167 139 -161 0
168 -164 165 0
168 -164 161 0
-168 164 165 0
-168 164 161 0
168 -169 -164 0
-168 -169 164 0
168 169 164 -165 -161 0
-168 169 -164 -165 -161 0
169 165 -161 0
-169 165 161 0
-170 165 0
169 -170 -161 0
-169 -170 161 0
169 170 -165 161 0
-169 170 -165 -161 0
-171 165 0
169 -171 161 0
-169 -171 -161 0
169 171 -165 -161 0
-169 171 -165 161 0
172 173 -168 0
172 -168 169 0
-172 173 168 0
-172 168 169 0
172 -168 -165 0
-172 168 -165 0
172 -173 168 165 -169 0
-172 -173 -168 165 -169 0
173 -165 169 0
-173 165 169 0
-174 169 0
173 -174 -165 0
-173 -174 165 0
173 174 165 -169 0
-173 174 -165 -169 0
-175 169 0
173 -175 165 0
-173 -175 -165 0
173 175 -165 -169 0
-173 175 165 -169 0
176 -172 173 0
176 -172 169 0
-176 172 173 0
-176 172 169 0
176 -177 -172 0
-176 -177 172 0
176 177 172 -173 -169 0
-176 177 -172 -173 -169 0
177 173 -169 0
-177 173 169 0
-178 173 0
177 -178 -169 0
-177 -178 169 0
177 178 -173 169 0
-177 178 -173 -169 0
-179 173 0
177 -179 169 0
-177 -179 -169 0
177 179 -173 -169 0
-177 179 -173 169 0
180 -176 136 0
180 -176 131 0
-180 176 136 0
-180 176 131 0
180 -181 -176 0
-180 -181 176 0
180 181 176 -136 -131 0
-180 181 -176 -136 -131 0
181 136 -131 0
-181 136 131 0
-182 136 0
181 -182 -131 0
-181 -182 131 0
181 182 -136 131 0
-181 182 -136 -131 0
-183 136 0
181 -183 131 0
-181 -183 -131 0
181 183 -136 -131 0
-181 183 -136 131 0
184 185 -180 0
184 -180 181 0
-184 185 180 0
-184 180 181 0
184 -180 -136 0
-184 180 -136 0
184 -185 180 136 -181 0
-184 -185 -180 136 -181 0
185 -136 181 0
-185 136 181 0
-186 181 0
185 -186 -136 0
-185 -186 136 0
185 186 136 -181 0
-185 186 -136 -181 0
-187 181 0
185 -187 136 0
-185 -187 -136 0
185 187 -136 -181 0
-185 187 136 -181 0
188 -184 185 0
188 -184 181 0
-188 184 185 0
-188 184 181 0
188 -189 -184 0
-188 -189 184 0
188 189 184 -185 -181 0
-188 189 -184 -185 -181 0
189 185 -181 0
-189 185 181 0
-190 185 0
189 -190 -181 0
-189 -190 181 0
189 190 -185 181 0
-189 190 -185 -181 0
-191 185 0
189 -191 181 0
-189 -191 -181 0
189 191 -185 -181 0
-189 191 -185 181 0
192 193 -188 0
192 -188 189 0
-192 193 188 0
-192 188 189 0
192 -188 -185 0
-192 188 -185 0
192 -193 188 185 -189 0
-192 -193 -188 185 -189 0
193 -185 189 0
-193 185 189 0
-194 189 0
193 -194 -185 0
-193 -194 185 0
193 194 185 -189 0
-193 194 -185 -189 0
-195 189 0
193 -195 185 0
-193 -195 -185 0
193 195 -185 -189 0
-193 195 185 -189 0
196 -192 193 0
196 -192 189 0
-196 192 193 0
-196 192 189 0
196 -197 -192 0
-196 -197 192 0
196 197 192 -193 -189 0
-196 197 -192 -193 -189 0
197 193 -189 0
-197 193 189 0
-198 193 0
197 -198 -189 0
-197 -198 189 0
197 198 -193 189 0
-197 198 -193 -189 0
-199 193 0
197 -199 189 0
-197 -199 -189 0
197 199 -193 -189 0
-197 199 -193 189 0
-153 0
-173 0
-177 0
-193 0
-197 0
